NAME          /XPRESSProb-Si5RMf
ROWS
 N  __OBJ___
 E  R1      
 E  R2      
 E  R3      
 E  R4      
 E  R5      
 E  R6      
 E  R7      
 E  R8      
 E  R9      
 E  R10     
 E  R11     
 E  R12     
 E  R13     
 E  R14     
 E  R15     
 E  R16     
 E  R17     
 E  R18     
 E  R19     
 E  R20     
 E  R21     
 E  R22     
 E  R23     
 E  R24     
 E  R25     
 E  R26     
 E  R27     
 E  R28     
 E  R29     
 E  R30     
 E  R31     
 E  R32     
 E  R33     
 E  R34     
 E  R35     
 E  R36     
 E  R37     
 E  R38     
 E  R39     
 E  R40     
 E  R41     
 E  R42     
 E  R43     
 E  R44     
 E  R45     
 E  R46     
 E  R47     
 E  R48     
 E  R49     
 E  R50     
 E  R51     
 E  R52     
 E  R53     
 E  R54     
 E  R55     
 E  R56     
 E  R57     
 E  R58     
 E  R59     
 E  R60     
 E  R61     
 E  R62     
 E  R63     
 E  R64     
 E  R65     
 E  R66     
 E  R67     
 E  R68     
 E  R69     
 E  R70     
 E  R71     
 E  R72     
 E  R73     
 E  R74     
 E  R75     
 E  R76     
 E  R77     
COLUMNS
    C3515     __OBJ___   1.6752E+6
    C3515     R2         1.0
    C3515     R5         1.0
    C3515     R12        1.0
    C3515     R15        1.0
    C3515     R19        1.0
    C3515     R24        1.0
    C3515     R30        1.0
    C3515     R34        1.0
    C3515     R40        1.0
    C3515     R44        1.0
    C3515     R48        1.0
    C3515     R50        1.0
    C3515     R53        1.0
    C3515     R57        1.0
    C3515     R63        1.0
    C3515     R69        1.0
    C3515     R75        1.0
    C3516     __OBJ___   1.815E+6
    C3516     R1         1.0
    C3516     R8         1.0
    C3516     R17        1.0
    C3516     R23        1.0
    C3516     R25        1.0
    C3516     R28        1.0
    C3516     R33        1.0
    C3516     R35        1.0
    C3516     R41        1.0
    C3516     R45        1.0
    C3516     R47        1.0
    C3516     R52        1.0
    C3516     R54        1.0
    C3516     R58        1.0
    C3516     R63        1.0
    C3516     R69        1.0
    C3516     R74        1.0
    C3516     R76        1.0
    C3517     __OBJ___   1.6261E+6
    C3517     R4         1.0
    C3517     R7         1.0
    C3517     R10        1.0
    C3517     R13        1.0
    C3517     R16        1.0
    C3517     R18        1.0
    C3517     R21        1.0
    C3517     R27        1.0
    C3517     R31        1.0
    C3517     R37        1.0
    C3517     R39        1.0
    C3517     R43        1.0
    C3517     R47        1.0
    C3517     R51        1.0
    C3517     R56        1.0
    C3517     R62        1.0
    C3517     R64        1.0
    C3517     R67        1.0
    C3517     R74        1.0
    C3517     R76        1.0
    C3518     __OBJ___   1.6882E+6
    C3518     R1         1.0
    C3518     R8         1.0
    C3518     R17        1.0
    C3518     R23        1.0
    C3518     R26        1.0
    C3518     R29        1.0
    C3518     R33        1.0
    C3518     R35        1.0
    C3518     R38        1.0
    C3518     R42        1.0
    C3518     R46        1.0
    C3518     R52        1.0
    C3518     R54        1.0
    C3518     R58        1.0
    C3518     R59        1.0
    C3518     R61        1.0
    C3518     R65        1.0
    C3518     R70        1.0
    C3518     R72        1.0
    C3519     __OBJ___   1.9E+6
    C3519     R3         1.0
    C3519     R6         1.0
    C3519     R9         1.0
    C3519     R11        1.0
    C3519     R14        1.0
    C3519     R20        1.0
    C3519     R22        1.0
    C3519     R25        1.0
    C3519     R28        1.0
    C3519     R32        1.0
    C3519     R36        1.0
    C3519     R41        1.0
    C3519     R45        1.0
    C3519     R49        1.0
    C3519     R55        1.0
    C3519     R60        1.0
    C3519     R66        1.0
    C3519     R68        1.0
    C3519     R71        1.0
    C3519     R73        1.0
    C3519     R77        1.0
    C3520     __OBJ___   2.1428E+6
    C3520     R1         1.0
    C3520     R8         1.0
    C3520     R15        1.0
    C3520     R20        1.0
    C3520     R22        1.0
    C3520     R26        1.0
    C3520     R30        1.0
    C3520     R32        1.0
    C3520     R36        1.0
    C3520     R38        1.0
    C3520     R43        1.0
    C3520     R49        1.0
    C3520     R55        1.0
    C3520     R59        1.0
    C3520     R62        1.0
    C3520     R64        1.0
    C3520     R69        1.0
    C3520     R72        1.0
    C3521     __OBJ___   1.8021E+6
    C3521     R2         1.0
    C3521     R5         1.0
    C3521     R12        1.0
    C3521     R15        1.0
    C3521     R19        1.0
    C3521     R21        1.0
    C3521     R27        1.0
    C3521     R31        1.0
    C3521     R35        1.0
    C3521     R38        1.0
    C3521     R42        1.0
    C3521     R46        1.0
    C3521     R52        1.0
    C3521     R54        1.0
    C3521     R58        1.0
    C3521     R62        1.0
    C3521     R66        1.0
    C3521     R68        1.0
    C3521     R74        1.0
    C3522     __OBJ___   1.8935E+6
    C3522     R3         1.0
    C3522     R6         1.0
    C3522     R9         1.0
    C3522     R11        1.0
    C3522     R14        1.0
    C3522     R20        1.0
    C3522     R22        1.0
    C3522     R25        1.0
    C3522     R28        1.0
    C3522     R34        1.0
    C3522     R40        1.0
    C3522     R46        1.0
    C3522     R50        1.0
    C3522     R55        1.0
    C3522     R59        1.0
    C3522     R61        1.0
    C3522     R65        1.0
    C3522     R70        1.0
    C3522     R71        1.0
    C3522     R73        1.0
RHS
    RHS00001  R1         1.0
    RHS00001  R2         1.0
    RHS00001  R3         1.0
    RHS00001  R4         1.0
    RHS00001  R5         1.0
    RHS00001  R6         1.0
    RHS00001  R7         1.0
    RHS00001  R8         1.0
    RHS00001  R9         1.0
    RHS00001  R10        1.0
    RHS00001  R11        1.0
    RHS00001  R12        1.0
    RHS00001  R13        1.0
    RHS00001  R14        1.0
    RHS00001  R15        1.0
    RHS00001  R16        1.0
    RHS00001  R17        1.0
    RHS00001  R18        1.0
    RHS00001  R19        1.0
    RHS00001  R20        1.0
    RHS00001  R21        1.0
    RHS00001  R22        1.0
    RHS00001  R23        1.0
    RHS00001  R24        1.0
    RHS00001  R25        1.0
    RHS00001  R26        1.0
    RHS00001  R27        1.0
    RHS00001  R28        1.0
    RHS00001  R29        1.0
    RHS00001  R30        1.0
    RHS00001  R31        1.0
    RHS00001  R32        1.0
    RHS00001  R33        1.0
    RHS00001  R34        1.0
    RHS00001  R35        1.0
    RHS00001  R36        1.0
    RHS00001  R37        1.0
    RHS00001  R38        1.0
    RHS00001  R39        1.0
    RHS00001  R40        1.0
    RHS00001  R41        1.0
    RHS00001  R42        1.0
    RHS00001  R43        1.0
    RHS00001  R44        1.0
    RHS00001  R45        1.0
    RHS00001  R46        1.0
    RHS00001  R47        1.0
    RHS00001  R48        1.0
    RHS00001  R49        1.0
    RHS00001  R50        1.0
    RHS00001  R51        1.0
    RHS00001  R52        1.0
    RHS00001  R53        1.0
    RHS00001  R54        1.0
    RHS00001  R55        1.0
    RHS00001  R56        1.0
    RHS00001  R57        1.0
    RHS00001  R58        1.0
    RHS00001  R59        1.0
    RHS00001  R60        1.0
    RHS00001  R61        1.0
    RHS00001  R62        1.0
    RHS00001  R63        1.0
    RHS00001  R64        1.0
    RHS00001  R65        1.0
    RHS00001  R66        1.0
    RHS00001  R67        1.0
    RHS00001  R68        1.0
    RHS00001  R69        1.0
    RHS00001  R70        1.0
    RHS00001  R71        1.0
    RHS00001  R72        1.0
    RHS00001  R73        1.0
    RHS00001  R74        1.0
    RHS00001  R75        1.0
    RHS00001  R76        1.0
    RHS00001  R77        1.0
BOUNDS
 UP BND00001  C3515      1.0
 UP BND00001  C3516      1.0
 UP BND00001  C3517      1.0
 UP BND00001  C3518      1.0
 UP BND00001  C3519      1.0
 UP BND00001  C3520      1.0
 UP BND00001  C3521      1.0
 UP BND00001  C3522      1.0
ENDATA
